100
1000
800
795
785
766
742
735
724
723
721
712
709
696
690
678
677
668
663
654
647
638
633
631
620
609
604
603
602
601
590
585
553
510
503
493
491
489
483
481
479
462
460
460
448
445
442
439
439
425
423
416
408
408
405
398
391
379
355
352
347
344
342
340
336
330
295
294
283
275
264
263
251
250
249
238
230
229
225
221
219
199
195
180
174
160
157
153
153
151
145
139
135
130
125
122
121
119
117
115
115
107
